m = 4; % number of couriers
n = 4; % number of packages

l = [2, 2, 4, 6]; % maximum carriable weight per courier
s = [1, 3, 1, 2]; % weight of each package

D = % distance matrix 
	 [| 1, 1, 3, 2, 1
	 | 1, 4, 2, 1, 2
	 | 3, 2, 4, 3, 3
	 | 2, 1, 3, 3, 2
	 | 1, 3, 4, 2, 3
	 |];